RAW/CMTQ/fspd-long/CMT9Q.vrp_seed-3.out
1161.244379	105.058	369.849
