RAW/CMTQ/fspd-long/CMT9Q.vrp_seed-3.sol
Route #1: 78 50 130 118 21 79 29 129 53 127 16 126 11
Route #2: 77 32 51 22 101 3 59 20 131 83 2 100
Route #3: 119 1 120 80 70 28 31 82 140 8 81
Route #4: 139 133 14 58 25 95 96 24 98 132 68
Route #5: 12 144 145 142 109 4 149 146 56 47
Route #6: 46 102 6 57 23 69 7 61 112 48 138 27
Route #7: 110 18 55 134 67 13 136 66 111 135 143
Route #8: 108 52 15 45 91 72 33 124 123 71 90 103
Route #9: 37 137 44 107 65 93 42 92 147 17 63
Route #10: 76 49 104 30 105 75 74 34 9 62 38
Route #11: 87 150 19 64 88 40 94 41 141 148
Route #12: 122 125 106 73 117 89 39 54 10 5
Route #13: 60 26 113 114 99 43 86 97
Route #14: 128 84 35 85 36 115 121 116
Cost 1161.244379